1 20 65 66 71 35 34 
50 33 81 78 29 24 55 25 54 12 
21 72 39 23 67 56 4 26 
92 98 85 44 14 38 86 16 91 100 37 
62 11 64 49 47 19 7 52 
94 96 99 5 84 17 61 93 59 
82 48 36 46 8 18 
89 83 45 60 6 
2 57 43 15 41 22 75 74 73 58 
27 69 30 32 90 63 10 31 
40 53 
76 3 79 9 51 70 
88 68 80 77 28 
42 87 97 95 13 
